
Gurobi 9.5.2 (mac64[rosetta2], gurobi_cl) logging started Tue Sep 13 11:06:36 2022

Set parameter Username
Set parameter LogFile to value "gurobi.log"
Academic license - for non-commercial use only - expires 2023-08-19
Using license file /Users/sanjanatule/gurobi.lic

Gurobi 9.5.2 (mac64[rosetta2], gurobi_cl) logging started Tue Sep 13 11:12:13 2022

Set parameter Username
Set parameter LogFile to value "gurobi.log"
Academic license - for non-commercial use only - expires 2023-08-19
Using license file /Users/sanjanatule/gurobi.lic

Gurobi 9.5.2 (mac64[rosetta2], gurobi_cl) logging started Tue Sep 13 11:13:40 2022

Set parameter Username
Set parameter LogFile to value "gurobi.log"
Academic license - for non-commercial use only - expires 2023-08-19
Using license file /Users/sanjanatule/gurobi.lic

Gurobi 9.5.2 (mac64[rosetta2], gurobi_cl) logging started Tue Sep 13 11:14:07 2022

Set parameter Username
Set parameter LogFile to value "gurobi.log"
Academic license - for non-commercial use only - expires 2023-08-19
Using license file /Users/sanjanatule/gurobi.lic

Gurobi 9.5.2 (mac64[rosetta2], gurobi_cl) logging started Tue Sep 13 11:18:46 2022

Set parameter Username
Set parameter LogFile to value "gurobi.log"
Academic license - for non-commercial use only - expires 2023-08-19
Using license file /Users/sanjanatule/gurobi.lic

Gurobi 9.5.2 (mac64[rosetta2], gurobi_cl) logging started Tue Sep 13 12:04:11 2022

Set parameter Username
Set parameter LogFile to value "gurobi.log"
Academic license - for non-commercial use only - expires 2023-08-19
Using license file /Users/sanjanatule/gurobi.lic

Gurobi 9.5.2 (mac64[rosetta2], gurobi_cl) logging started Tue Sep 13 12:06:12 2022

Set parameter Username
Set parameter LogFile to value "gurobi.log"
Academic license - for non-commercial use only - expires 2023-08-19
Using license file /Users/sanjanatule/gurobi.lic

Gurobi 9.5.2 (mac64[rosetta2], gurobi_cl) logging started Tue Sep 13 12:07:13 2022

Set parameter Username
Set parameter LogFile to value "gurobi.log"
Academic license - for non-commercial use only - expires 2023-08-19
Using license file /Users/sanjanatule/gurobi.lic

Gurobi 9.5.2 (mac64[rosetta2], gurobi_cl) logging started Tue Sep 13 12:07:46 2022

Set parameter Username
Set parameter LogFile to value "gurobi.log"
Academic license - for non-commercial use only - expires 2023-08-19
Using license file /Users/sanjanatule/gurobi.lic

Gurobi 9.5.2 (mac64[rosetta2], gurobi_cl) logging started Tue Sep 13 12:09:26 2022

Set parameter Username
Set parameter LogFile to value "gurobi.log"
Academic license - for non-commercial use only - expires 2023-08-19
Using license file /Users/sanjanatule/gurobi.lic

Gurobi 9.5.2 (mac64[rosetta2], gurobi_cl) logging started Tue Sep 13 12:10:46 2022

Set parameter Username
Set parameter LogFile to value "gurobi.log"
Academic license - for non-commercial use only - expires 2023-08-19
Using license file /Users/sanjanatule/gurobi.lic

Gurobi 9.5.2 (mac64[rosetta2], gurobi_cl) logging started Tue Sep 13 12:11:44 2022

Set parameter Username
Set parameter LogFile to value "gurobi.log"
Academic license - for non-commercial use only - expires 2023-08-19
Using license file /Users/sanjanatule/gurobi.lic

Gurobi 9.5.2 (mac64[rosetta2], gurobi_cl) logging started Tue Sep 13 12:14:39 2022

Set parameter Username
Set parameter LogFile to value "gurobi.log"
Academic license - for non-commercial use only - expires 2023-08-19
Using license file /Users/sanjanatule/gurobi.lic

Gurobi 9.5.2 (mac64[rosetta2], gurobi_cl) logging started Tue Sep 13 12:15:06 2022

Set parameter Username
Set parameter LogFile to value "gurobi.log"
Academic license - for non-commercial use only - expires 2023-08-19
Using license file /Users/sanjanatule/gurobi.lic

Gurobi 9.5.2 (mac64[rosetta2], gurobi_cl) logging started Tue Sep 13 12:16:51 2022

Set parameter Username
Set parameter LogFile to value "gurobi.log"
Academic license - for non-commercial use only - expires 2023-08-19
Using license file /Users/sanjanatule/gurobi.lic

Gurobi 9.5.2 (mac64[rosetta2], gurobi_cl) logging started Tue Sep 13 12:20:59 2022

Set parameter Username
Set parameter LogFile to value "gurobi.log"
Academic license - for non-commercial use only - expires 2023-08-19
Using license file /Users/sanjanatule/gurobi.lic

Gurobi 9.5.2 (mac64[rosetta2], gurobi_cl) logging started Tue Sep 13 12:27:54 2022

Set parameter Username
Set parameter LogFile to value "gurobi.log"
Academic license - for non-commercial use only - expires 2023-08-19
Using license file /Users/sanjanatule/gurobi.lic

Gurobi 9.5.2 (mac64[rosetta2], gurobi_cl) logging started Tue Sep 13 12:30:00 2022

Set parameter Username
Set parameter LogFile to value "gurobi.log"
Academic license - for non-commercial use only - expires 2023-08-19
Using license file /Users/sanjanatule/gurobi.lic

Gurobi 9.5.2 (mac64[rosetta2], gurobi_cl) logging started Tue Sep 13 12:33:27 2022

Set parameter Username
Set parameter LogFile to value "gurobi.log"
Academic license - for non-commercial use only - expires 2023-08-19
Using license file /Users/sanjanatule/gurobi.lic

Gurobi 9.5.2 (mac64[rosetta2], gurobi_cl) logging started Tue Sep 13 12:35:55 2022

Set parameter Username
Set parameter LogFile to value "gurobi.log"
Academic license - for non-commercial use only - expires 2023-08-19
Using license file /Users/sanjanatule/gurobi.lic

Gurobi 9.5.2 (mac64[rosetta2], gurobi_cl) logging started Tue Sep 13 12:36:28 2022

Set parameter Username
Set parameter LogFile to value "gurobi.log"
Academic license - for non-commercial use only - expires 2023-08-19
Using license file /Users/sanjanatule/gurobi.lic

Gurobi 9.5.2 (mac64[rosetta2], gurobi_cl) logging started Tue Sep 13 12:39:21 2022

Set parameter Username
Set parameter LogFile to value "gurobi.log"
Academic license - for non-commercial use only - expires 2023-08-19
Using license file /Users/sanjanatule/gurobi.lic

Gurobi 9.5.2 (mac64[rosetta2], gurobi_cl) logging started Tue Sep 13 12:40:49 2022

Set parameter Username
Set parameter LogFile to value "gurobi.log"
Academic license - for non-commercial use only - expires 2023-08-19
Using license file /Users/sanjanatule/gurobi.lic

Gurobi 9.5.2 (mac64[rosetta2], gurobi_cl) logging started Tue Sep 13 12:51:59 2022

Set parameter Username
Set parameter LogFile to value "gurobi.log"
Academic license - for non-commercial use only - expires 2023-08-19
Using license file /Users/sanjanatule/gurobi.lic

Gurobi 9.5.2 (mac64[rosetta2], gurobi_cl) logging started Tue Sep 13 14:54:32 2022

Set parameter Username
Set parameter LogFile to value "gurobi.log"
Academic license - for non-commercial use only - expires 2023-08-19
Using license file /Users/sanjanatule/gurobi.lic
